/* Cplex Data generated on 2017-12-16 */

k = 58;

b = 29;

AtomicConstraints = {
	 <1, 2>,
	 <1, 3>,
	 <1, 4>,
	 <1, 9>,
	 <1, 10>,
	 <1, 11>,
	 <1, 12>,
	 <1, 13>,
	 <1, 14>,
	 <1, 31>,
	 <1, 51>,
	 <1, 50>,
	 <1, 53>,
	 <1, 58>,
	 <1, 52>,
	 <2, 51>,
	 <2, 50>,
	 <2, 53>,
	 <3, 14>,
	 <3, 51>,
	 <3, 50>,
	 <3, 53>,
	 <4, 12>,
	 <4, 13>,
	 <4, 14>,
	 <4, 51>,
	 <4, 50>,
	 <4, 53>,
	 <5, 51>,
	 <5, 50>,
	 <5, 53>,
	 <5, 55>,
	 <5, 57>,
	 <5, 54>,
	 <6, 51>,
	 <6, 50>,
	 <6, 53>,
	 <6, 55>,
	 <6, 57>,
	 <6, 54>,
	 <7, 51>,
	 <7, 50>,
	 <7, 53>,
	 <7, 55>,
	 <7, 57>,
	 <7, 54>,
	 <8, 2>,
	 <8, 51>,
	 <8, 50>,
	 <8, 53>,
	 <8, 55>,
	 <8, 57>,
	 <8, 54>,
	 <9, 2>,
	 <9, 3>,
	 <9, 4>,
	 <9, 12>,
	 <9, 13>,
	 <9, 14>,
	 <9, 51>,
	 <9, 50>,
	 <9, 53>,
	 <9, 58>,
	 <10, 2>,
	 <10, 3>,
	 <10, 4>,
	 <10, 12>,
	 <10, 13>,
	 <10, 14>,
	 <10, 51>,
	 <10, 50>,
	 <10, 53>,
	 <10, 58>,
	 <11, 2>,
	 <11, 3>,
	 <11, 4>,
	 <11, 12>,
	 <11, 13>,
	 <11, 14>,
	 <11, 51>,
	 <11, 50>,
	 <11, 53>,
	 <11, 58>,
	 <13, 12>,
	 <13, 53>,
	 <14, 12>,
	 <14, 13>,
	 <14, 50>,
	 <14, 53>,
	 <15, 2>,
	 <15, 3>,
	 <15, 4>,
	 <15, 12>,
	 <15, 13>,
	 <15, 14>,
	 <15, 51>,
	 <15, 50>,
	 <15, 53>,
	 <15, 55>,
	 <15, 58>,
	 <16, 2>,
	 <16, 3>,
	 <16, 4>,
	 <16, 11>,
	 <16, 12>,
	 <16, 13>,
	 <16, 14>,
	 <16, 51>,
	 <16, 50>,
	 <16, 53>,
	 <16, 55>,
	 <16, 58>,
	 <17, 2>,
	 <17, 3>,
	 <17, 4>,
	 <17, 10>,
	 <17, 11>,
	 <17, 12>,
	 <17, 13>,
	 <17, 14>,
	 <17, 51>,
	 <17, 50>,
	 <17, 53>,
	 <17, 58>,
	 <18, 33>,
	 <18, 21>,
	 <18, 22>,
	 <18, 37>,
	 <18, 32>,
	 <18, 23>,
	 <18, 24>,
	 <18, 41>,
	 <18, 44>,
	 <18, 38>,
	 <18, 45>,
	 <18, 25>,
	 <18, 27>,
	 <18, 28>,
	 <18, 29>,
	 <19, 33>,
	 <19, 21>,
	 <19, 22>,
	 <19, 42>,
	 <19, 37>,
	 <19, 32>,
	 <19, 23>,
	 <19, 24>,
	 <19, 41>,
	 <19, 43>,
	 <19, 44>,
	 <19, 38>,
	 <19, 45>,
	 <19, 25>,
	 <19, 27>,
	 <19, 28>,
	 <19, 29>,
	 <20, 33>,
	 <20, 21>,
	 <20, 22>,
	 <20, 42>,
	 <20, 37>,
	 <20, 32>,
	 <20, 23>,
	 <20, 24>,
	 <20, 41>,
	 <20, 43>,
	 <20, 38>,
	 <20, 45>,
	 <20, 25>,
	 <20, 26>,
	 <20, 28>,
	 <20, 36>,
	 <20, 29>,
	 <35, 33>,
	 <35, 21>,
	 <35, 22>,
	 <35, 42>,
	 <35, 39>,
	 <35, 37>,
	 <35, 32>,
	 <35, 23>,
	 <35, 24>,
	 <35, 41>,
	 <35, 43>,
	 <35, 40>,
	 <35, 38>,
	 <35, 45>,
	 <35, 25>,
	 <35, 26>,
	 <35, 36>,
	 <35, 34>,
	 <35, 29>,
	 <37, 33>,
	 <37, 29>,
	 <32, 33>,
	 <32, 21>,
	 <32, 22>,
	 <23, 21>,
	 <23, 22>,
	 <24, 21>,
	 <24, 22>,
	 <41, 42>,
	 <43, 42>,
	 <40, 39>,
	 <44, 33>,
	 <44, 37>,
	 <44, 29>,
	 <38, 33>,
	 <38, 21>,
	 <38, 22>,
	 <38, 37>,
	 <38, 32>,
	 <38, 23>,
	 <38, 24>,
	 <38, 29>,
	 <45, 33>,
	 <45, 21>,
	 <45, 22>,
	 <45, 32>,
	 <45, 23>,
	 <45, 24>,
	 <45, 41>,
	 <45, 29>,
	 <25, 33>,
	 <25, 21>,
	 <25, 22>,
	 <25, 42>,
	 <25, 32>,
	 <25, 23>,
	 <25, 24>,
	 <25, 41>,
	 <25, 43>,
	 <26, 21>,
	 <26, 22>,
	 <26, 42>,
	 <26, 24>,
	 <26, 41>,
	 <26, 43>,
	 <27, 33>,
	 <27, 21>,
	 <27, 22>,
	 <27, 37>,
	 <27, 32>,
	 <27, 23>,
	 <27, 24>,
	 <27, 41>,
	 <27, 38>,
	 <27, 45>,
	 <27, 25>,
	 <27, 29>,
	 <28, 33>,
	 <28, 21>,
	 <28, 22>,
	 <28, 42>,
	 <28, 37>,
	 <28, 32>,
	 <28, 23>,
	 <28, 24>,
	 <28, 41>,
	 <28, 43>,
	 <28, 38>,
	 <28, 45>,
	 <28, 25>,
	 <28, 29>,
	 <36, 33>,
	 <36, 21>,
	 <36, 22>,
	 <36, 42>,
	 <36, 39>,
	 <36, 37>,
	 <36, 32>,
	 <36, 23>,
	 <36, 24>,
	 <36, 41>,
	 <36, 43>,
	 <36, 40>,
	 <36, 45>,
	 <36, 25>,
	 <36, 26>,
	 <36, 29>,
	 <34, 33>,
	 <34, 21>,
	 <34, 22>,
	 <34, 42>,
	 <34, 39>,
	 <34, 32>,
	 <34, 23>,
	 <34, 24>,
	 <34, 41>,
	 <34, 43>,
	 <34, 40>,
	 <34, 25>,
	 <34, 26>,
	 <34, 29>,
	 <30, 33>,
	 <30, 21>,
	 <30, 37>,
	 <30, 32>,
	 <30, 31>,
	 <30, 44>,
	 <30, 29>,
	 <46, 33>,
	 <46, 21>,
	 <46, 22>,
	 <46, 37>,
	 <46, 32>,
	 <46, 23>,
	 <46, 24>,
	 <46, 31>,
	 <46, 44>,
	 <46, 38>,
	 <46, 29>,
	 <51, 50>,
	 <51, 53>,
	 <50, 53>,
	 <49, 33>,
	 <49, 18>,
	 <49, 19>,
	 <49, 20>,
	 <49, 35>,
	 <49, 21>,
	 <49, 22>,
	 <49, 42>,
	 <49, 39>,
	 <49, 37>,
	 <49, 32>,
	 <49, 23>,
	 <49, 24>,
	 <49, 41>,
	 <49, 43>,
	 <49, 40>,
	 <49, 31>,
	 <49, 44>,
	 <49, 38>,
	 <49, 45>,
	 <49, 25>,
	 <49, 26>,
	 <49, 27>,
	 <49, 28>,
	 <49, 36>,
	 <49, 34>,
	 <49, 29>,
	 <49, 30>,
	 <49, 46>,
	 <49, 58>,
	 <47, 33>,
	 <47, 18>,
	 <47, 19>,
	 <47, 20>,
	 <47, 35>,
	 <47, 21>,
	 <47, 22>,
	 <47, 42>,
	 <47, 39>,
	 <47, 37>,
	 <47, 32>,
	 <47, 23>,
	 <47, 24>,
	 <47, 41>,
	 <47, 43>,
	 <47, 40>,
	 <47, 31>,
	 <47, 44>,
	 <47, 38>,
	 <47, 45>,
	 <47, 25>,
	 <47, 26>,
	 <47, 27>,
	 <47, 28>,
	 <47, 36>,
	 <47, 34>,
	 <47, 29>,
	 <47, 30>,
	 <47, 46>,
	 <47, 58>,
	 <48, 33>,
	 <48, 18>,
	 <48, 19>,
	 <48, 20>,
	 <48, 35>,
	 <48, 21>,
	 <48, 22>,
	 <48, 42>,
	 <48, 39>,
	 <48, 37>,
	 <48, 32>,
	 <48, 23>,
	 <48, 24>,
	 <48, 41>,
	 <48, 43>,
	 <48, 40>,
	 <48, 31>,
	 <48, 44>,
	 <48, 38>,
	 <48, 45>,
	 <48, 25>,
	 <48, 26>,
	 <48, 27>,
	 <48, 28>,
	 <48, 36>,
	 <48, 34>,
	 <48, 29>,
	 <48, 30>,
	 <48, 46>,
	 <48, 58>,
	 <57, 55>,
	 <54, 55>,
	 <54, 57>,
	 <52, 58>,
	 <56, 12>,
	 <56, 13>,
	 <56, 14>,
	 <56, 33>,
	 <56, 18>,
	 <56, 19>,
	 <56, 20>,
	 <56, 35>,
	 <56, 21>,
	 <56, 22>,
	 <56, 42>,
	 <56, 39>,
	 <56, 37>,
	 <56, 32>,
	 <56, 23>,
	 <56, 24>,
	 <56, 41>,
	 <56, 43>,
	 <56, 40>,
	 <56, 31>,
	 <56, 44>,
	 <56, 38>,
	 <56, 45>,
	 <56, 25>,
	 <56, 26>,
	 <56, 27>,
	 <56, 28>,
	 <56, 36>,
	 <56, 34>,
	 <56, 29>,
	 <56, 30>,
	 <56, 46>,
	 <56, 51>,
	 <56, 50>,
	 <56, 53>,
	 <56, 49>,
	 <56, 47>,
	 <56, 48>,
	 <56, 58>,
	 <56, 52>,
	 }; 

SoftAtomicConstraints = {
	 <3, 2>,
	 <4, 3>,
	 <6, 5>,
	 <7, 6>,
	 <8, 7>,
	 <9, 10>,
	 <10, 11>,
	 <16, 15>,
	 <17, 16>,
	 <1, 17>,
	 <19, 18>,
	 <20, 19>,
	 <35, 20>,
	 <22, 21>,
	 <42, 22>,
	 <24, 23>,
	 <41, 24>,
	 <26, 25>,
	 <28, 27>,
	 <36, 28>,
	 <33, 29>,
	 <46, 30>,
	 <44, 31>,
	 <23, 32>,
	 <21, 33>,
	 <34, 36>,
	 <32, 37>,
	 <45, 38>,
	 <43, 41>,
	 <39, 42>,
	 <40, 43>,
	 <38, 44>,
	 <25, 45>,
	 <18, 46>,
	 <49, 47>,
	 <47, 48>,
	 }; 

DisjunctiveConstraints = {
	 <1, 33, 4, 1>,
	 <1, 37, 8, 1>,
	 <1, 44, 15, 1>,
	 <1, 38, 9, 1>,
	 <1, 29, 58, 1>,
	 <3, 4, 3, 2>,
	 <3, 12, 41, 3>,
	 <3, 13, 42, 3>,
	 <3, 14, 43, 3>,
	 <4, 12, 4, 41>,
	 <4, 13, 4, 42>,
	 <4, 14, 4, 43>,
	 <6, 7, 6, 5>,
	 <7, 2, 31, 7>,
	 <7, 8, 7, 6>,
	 <8, 3, 32, 8>,
	 <8, 12, 41, 8>,
	 <8, 13, 42, 8>,
	 <10, 9, 10, 11>,
	 <14, 58, 29, 14>,
	 <15, 11, 40, 15>,
	 <16, 10, 39, 16>,
	 <16, 11, 16, 40>,
	 <16, 17, 16, 15>,
	 <17, 9, 38, 17>,
	 <17, 10, 17, 39>,
	 <18, 19, 18, 46>,
	 <18, 41, 12, 18>,
	 <18, 25, 54, 18>,
	 <19, 20, 19, 18>,
	 <19, 42, 13, 19>,
	 <19, 43, 14, 19>,
	 <20, 35, 20, 19>,
	 <35, 39, 10, 35>,
	 <35, 40, 11, 35>,
	 <33, 21, 33, 29>,
	 <21, 22, 21, 33>,
	 <32, 23, 32, 37>,
	 <23, 24, 23, 32>,
	 <45, 25, 45, 38>,
	 <25, 42, 13, 25>,
	 <25, 26, 25, 45>,
	 <28, 42, 13, 28>,
	 <36, 39, 10, 36>,
	 <36, 40, 11, 36>,
	 <34, 10, 34, 39>,
	 <34, 11, 34, 40>,
	 <30, 21, 50, 30>,
	 <30, 32, 3, 30>,
	 <46, 38, 9, 46>,
	 <47, 5, 47, 34>,
	 <47, 10, 47, 39>,
	 <47, 11, 47, 40>,
	 <47, 49, 47, 48>,
	 <48, 6, 48, 35>,
	 <48, 7, 48, 36>,
	 <48, 20, 48, 49>,
	 <48, 34, 5, 48>,
	 }; 

DirectSuccessors = {
	 }; 

